language Essence 1.3

letting costTC be
        function((1, 1) --> 3, (1, 2) --> 7, (1, 3) --> 6, (1, 4) --> 7, (2, 1) --> 5, (2, 2) --> 6, (2, 3) --> 5,
                 (2, 4) --> 4, (3, 1) --> 3, (3, 2) --> 5, (3, 3) --> 2, (3, 4) --> 5, (4, 1) --> 4, (4, 2) --> 7,
                 (4, 3) --> 2, (4, 4) --> 6, (5, 1) --> 8, (5, 2) --> 2, (5, 3) --> 1, (5, 4) --> 2, (6, 1) --> 8,
                 (6, 2) --> 4, (6, 3) --> 1, (6, 4) --> 7, (7, 1) --> 3, (7, 2) --> 6, (7, 3) --> 4, (7, 4) --> 8,
                 (8, 1) --> 7, (8, 2) --> 5, (8, 3) --> 6, (8, 4) --> 7, (9, 1) --> 8, (9, 2) --> 8, (9, 3) --> 6,
                 (9, 4) --> 2, (10, 1) --> 4, (10, 2) --> 6, (10, 3) --> 7, (10, 4) --> 6, (11, 1) --> 6, (11, 2) --> 1,
                 (11, 3) --> 3, (11, 4) --> 5, (12, 1) --> 8, (12, 2) --> 7, (12, 3) --> 3, (12, 4) --> 7,
                 (13, 1) --> 1, (13, 2) --> 1, (13, 3) --> 8, (13, 4) --> 8, (14, 1) --> 7, (14, 2) --> 1,
                 (14, 3) --> 2, (14, 4) --> 6, (15, 1) --> 1, (15, 2) --> 8, (15, 3) --> 3, (15, 4) --> 8,
                 (16, 1) --> 3, (16, 2) --> 7, (16, 3) --> 8, (16, 4) --> 2, (17, 1) --> 1, (17, 2) --> 1,
                 (17, 3) --> 4, (17, 4) --> 7)
letting costWT be
        function((1, 1) --> 4, (1, 2) --> 3, (1, 3) --> 4, (1, 4) --> 4, (1, 5) --> 3, (1, 6) --> 4, (1, 7) --> 3,
                 (1, 8) --> 2, (1, 9) --> 2, (1, 10) --> 2, (1, 11) --> 2, (1, 12) --> 2, (1, 13) --> 2, (1, 14) --> 2,
                 (1, 15) --> 3, (1, 16) --> 2, (1, 17) --> 4, (2, 1) --> 2, (2, 2) --> 3, (2, 3) --> 3, (2, 4) --> 4,
                 (2, 5) --> 4, (2, 6) --> 3, (2, 7) --> 3, (2, 8) --> 3, (2, 9) --> 2, (2, 10) --> 4, (2, 11) --> 2,
                 (2, 12) --> 2, (2, 13) --> 3, (2, 14) --> 2, (2, 15) --> 2, (2, 16) --> 2, (2, 17) --> 3, (3, 1) --> 2,
                 (3, 2) --> 2, (3, 3) --> 4, (3, 4) --> 3, (3, 5) --> 4, (3, 6) --> 3, (3, 7) --> 3, (3, 8) --> 2,
                 (3, 9) --> 4, (3, 10) --> 2, (3, 11) --> 4, (3, 12) --> 2, (3, 13) --> 2, (3, 14) --> 3, (3, 15) --> 3,
                 (3, 16) --> 2, (3, 17) --> 3, (4, 1) --> 4, (4, 2) --> 2, (4, 3) --> 2, (4, 4) --> 4, (4, 5) --> 4,
                 (4, 6) --> 2, (4, 7) --> 2, (4, 8) --> 3, (4, 9) --> 2, (4, 10) --> 4, (4, 11) --> 2, (4, 12) --> 3,
                 (4, 13) --> 3, (4, 14) --> 2, (4, 15) --> 4, (4, 16) --> 3, (4, 17) --> 2, (5, 1) --> 2, (5, 2) --> 2,
                 (5, 3) --> 4, (5, 4) --> 4, (5, 5) --> 2, (5, 6) --> 2, (5, 7) --> 3, (5, 8) --> 3, (5, 9) --> 4,
                 (5, 10) --> 4, (5, 11) --> 3, (5, 12) --> 4, (5, 13) --> 2, (5, 14) --> 3, (5, 15) --> 4,
                 (5, 16) --> 3, (5, 17) --> 4, (6, 1) --> 3, (6, 2) --> 2, (6, 3) --> 2, (6, 4) --> 3, (6, 5) --> 4,
                 (6, 6) --> 4, (6, 7) --> 3, (6, 8) --> 4, (6, 9) --> 4, (6, 10) --> 2, (6, 11) --> 4, (6, 12) --> 2,
                 (6, 13) --> 3, (6, 14) --> 4, (6, 15) --> 2, (6, 16) --> 2, (6, 17) --> 3, (7, 1) --> 2, (7, 2) --> 3,
                 (7, 3) --> 3, (7, 4) --> 4, (7, 5) --> 4, (7, 6) --> 2, (7, 7) --> 2, (7, 8) --> 4, (7, 9) --> 4,
                 (7, 10) --> 4, (7, 11) --> 3, (7, 12) --> 4, (7, 13) --> 4, (7, 14) --> 3, (7, 15) --> 4,
                 (7, 16) --> 2, (7, 17) --> 4, (8, 1) --> 3, (8, 2) --> 3, (8, 3) --> 3, (8, 4) --> 4, (8, 5) --> 4,
                 (8, 6) --> 4, (8, 7) --> 3, (8, 8) --> 2, (8, 9) --> 4, (8, 10) --> 4, (8, 11) --> 3, (8, 12) --> 4,
                 (8, 13) --> 4, (8, 14) --> 4, (8, 15) --> 3, (8, 16) --> 4, (8, 17) --> 4, (9, 1) --> 4, (9, 2) --> 2,
                 (9, 3) --> 3, (9, 4) --> 2, (9, 5) --> 3, (9, 6) --> 3, (9, 7) --> 2, (9, 8) --> 4, (9, 9) --> 2,
                 (9, 10) --> 4, (9, 11) --> 4, (9, 12) --> 3, (9, 13) --> 3, (9, 14) --> 2, (9, 15) --> 2,
                 (9, 16) --> 2, (9, 17) --> 2, (10, 1) --> 3, (10, 2) --> 3, (10, 3) --> 4, (10, 4) --> 2,
                 (10, 5) --> 4, (10, 6) --> 4, (10, 7) --> 2, (10, 8) --> 3, (10, 9) --> 2, (10, 10) --> 4,
                 (10, 11) --> 3, (10, 12) --> 2, (10, 13) --> 4, (10, 14) --> 2, (10, 15) --> 3, (10, 16) --> 2,
                 (10, 17) --> 3, (11, 1) --> 4, (11, 2) --> 3, (11, 3) --> 2, (11, 4) --> 3, (11, 5) --> 4,
                 (11, 6) --> 4, (11, 7) --> 4, (11, 8) --> 4, (11, 9) --> 2, (11, 10) --> 2, (11, 11) --> 2,
                 (11, 12) --> 2, (11, 13) --> 3, (11, 14) --> 3, (11, 15) --> 2, (11, 16) --> 2, (11, 17) --> 3,
                 (12, 1) --> 2, (12, 2) --> 2, (12, 3) --> 2, (12, 4) --> 3, (12, 5) --> 4, (12, 6) --> 4,
                 (12, 7) --> 2, (12, 8) --> 3, (12, 9) --> 2, (12, 10) --> 2, (12, 11) --> 2, (12, 12) --> 3,
                 (12, 13) --> 3, (12, 14) --> 3, (12, 15) --> 4, (12, 16) --> 2, (12, 17) --> 4, (13, 1) --> 4,
                 (13, 2) --> 2, (13, 3) --> 4, (13, 4) --> 4, (13, 5) --> 3, (13, 6) --> 2, (13, 7) --> 4,
                 (13, 8) --> 3, (13, 9) --> 4, (13, 10) --> 3, (13, 11) --> 3, (13, 12) --> 2, (13, 13) --> 3,
                 (13, 14) --> 3, (13, 15) --> 4, (13, 16) --> 2, (13, 17) --> 3, (14, 1) --> 4, (14, 2) --> 2,
                 (14, 3) --> 3, (14, 4) --> 2, (14, 5) --> 2, (14, 6) --> 3, (14, 7) --> 3, (14, 8) --> 3,
                 (14, 9) --> 4, (14, 10) --> 3, (14, 11) --> 2, (14, 12) --> 4, (14, 13) --> 2, (14, 14) --> 2,
                 (14, 15) --> 2, (14, 16) --> 3, (14, 17) --> 2, (15, 1) --> 4, (15, 2) --> 3, (15, 3) --> 2,
                 (15, 4) --> 3, (15, 5) --> 3, (15, 6) --> 4, (15, 7) --> 4, (15, 8) --> 4, (15, 9) --> 4,
                 (15, 10) --> 4, (15, 11) --> 2, (15, 12) --> 3, (15, 13) --> 4, (15, 14) --> 2, (15, 15) --> 4,
                 (15, 16) --> 4, (15, 17) --> 2, (16, 1) --> 3, (16, 2) --> 3, (16, 3) --> 3, (16, 4) --> 3,
                 (16, 5) --> 2, (16, 6) --> 2, (16, 7) --> 4, (16, 8) --> 2, (16, 9) --> 4, (16, 10) --> 2,
                 (16, 11) --> 2, (16, 12) --> 2, (16, 13) --> 3, (16, 14) --> 2, (16, 15) --> 3, (16, 16) --> 3,
                 (16, 17) --> 4, (17, 1) --> 3, (17, 2) --> 4, (17, 3) --> 3, (17, 4) --> 2, (17, 5) --> 4,
                 (17, 6) --> 2, (17, 7) --> 4, (17, 8) --> 4, (17, 9) --> 2, (17, 10) --> 2, (17, 11) --> 3,
                 (17, 12) --> 2, (17, 13) --> 4, (17, 14) --> 2, (17, 15) --> 4, (17, 16) --> 3, (17, 17) --> 4,
                 (18, 1) --> 2, (18, 2) --> 4, (18, 3) --> 3, (18, 4) --> 3, (18, 5) --> 3, (18, 6) --> 4,
                 (18, 7) --> 3, (18, 8) --> 2, (18, 9) --> 2, (18, 10) --> 4, (18, 11) --> 4, (18, 12) --> 3,
                 (18, 13) --> 4, (18, 14) --> 3, (18, 15) --> 3, (18, 16) --> 4, (18, 17) --> 3, (19, 1) --> 4,
                 (19, 2) --> 3, (19, 3) --> 2, (19, 4) --> 4, (19, 5) --> 3, (19, 6) --> 3, (19, 7) --> 2,
                 (19, 8) --> 2, (19, 9) --> 4, (19, 10) --> 3, (19, 11) --> 4, (19, 12) --> 4, (19, 13) --> 4,
                 (19, 14) --> 2, (19, 15) --> 4, (19, 16) --> 3, (19, 17) --> 4, (20, 1) --> 4, (20, 2) --> 3,
                 (20, 3) --> 3, (20, 4) --> 4, (20, 5) --> 2, (20, 6) --> 4, (20, 7) --> 2, (20, 8) --> 2,
                 (20, 9) --> 3, (20, 10) --> 3, (20, 11) --> 3, (20, 12) --> 3, (20, 13) --> 2, (20, 14) --> 3,
                 (20, 15) --> 4, (20, 16) --> 2, (20, 17) --> 4, (21, 1) --> 3, (21, 2) --> 4, (21, 3) --> 4,
                 (21, 4) --> 3, (21, 5) --> 3, (21, 6) --> 2, (21, 7) --> 3, (21, 8) --> 3, (21, 9) --> 2,
                 (21, 10) --> 3, (21, 11) --> 4, (21, 12) --> 2, (21, 13) --> 4, (21, 14) --> 2, (21, 15) --> 3,
                 (21, 16) --> 4, (21, 17) --> 2, (22, 1) --> 2, (22, 2) --> 4, (22, 3) --> 3, (22, 4) --> 2,
                 (22, 5) --> 4, (22, 6) --> 2, (22, 7) --> 4, (22, 8) --> 4, (22, 9) --> 4, (22, 10) --> 2,
                 (22, 11) --> 3, (22, 12) --> 2, (22, 13) --> 2, (22, 14) --> 3, (22, 15) --> 2, (22, 16) --> 3,
                 (22, 17) --> 2, (23, 1) --> 2, (23, 2) --> 3, (23, 3) --> 2, (23, 4) --> 4, (23, 5) --> 2,
                 (23, 6) --> 3, (23, 7) --> 3, (23, 8) --> 2, (23, 9) --> 3, (23, 10) --> 4, (23, 11) --> 4,
                 (23, 12) --> 3, (23, 13) --> 4, (23, 14) --> 2, (23, 15) --> 2, (23, 16) --> 3, (23, 17) --> 4,
                 (24, 1) --> 4, (24, 2) --> 2, (24, 3) --> 3, (24, 4) --> 2, (24, 5) --> 3, (24, 6) --> 3,
                 (24, 7) --> 4, (24, 8) --> 4, (24, 9) --> 2, (24, 10) --> 3, (24, 11) --> 3, (24, 12) --> 3,
                 (24, 13) --> 4, (24, 14) --> 4, (24, 15) --> 3, (24, 16) --> 3, (24, 17) --> 4, (25, 1) --> 2,
                 (25, 2) --> 3, (25, 3) --> 3, (25, 4) --> 2, (25, 5) --> 4, (25, 6) --> 3, (25, 7) --> 4,
                 (25, 8) --> 2, (25, 9) --> 4, (25, 10) --> 2, (25, 11) --> 2, (25, 12) --> 2, (25, 13) --> 2,
                 (25, 14) --> 3, (25, 15) --> 3, (25, 16) --> 4, (25, 17) --> 3, (26, 1) --> 4, (26, 2) --> 2,
                 (26, 3) --> 2, (26, 4) --> 2, (26, 5) --> 2, (26, 6) --> 4, (26, 7) --> 2, (26, 8) --> 4,
                 (26, 9) --> 2, (26, 10) --> 3, (26, 11) --> 2, (26, 12) --> 3, (26, 13) --> 2, (26, 14) --> 2,
                 (26, 15) --> 3, (26, 16) --> 3, (26, 17) --> 2, (27, 1) --> 4, (27, 2) --> 3, (27, 3) --> 2,
                 (27, 4) --> 4, (27, 5) --> 2, (27, 6) --> 3, (27, 7) --> 2, (27, 8) --> 2, (27, 9) --> 2,
                 (27, 10) --> 3, (27, 11) --> 2, (27, 12) --> 3, (27, 13) --> 2, (27, 14) --> 3, (27, 15) --> 3,
                 (27, 16) --> 4, (27, 17) --> 3, (28, 1) --> 2, (28, 2) --> 2, (28, 3) --> 3, (28, 4) --> 3,
                 (28, 5) --> 2, (28, 6) --> 2, (28, 7) --> 4, (28, 8) --> 2, (28, 9) --> 4, (28, 10) --> 4,
                 (28, 11) --> 3, (28, 12) --> 2, (28, 13) --> 2, (28, 14) --> 4, (28, 15) --> 4, (28, 16) --> 4,
                 (28, 17) --> 3, (29, 1) --> 2, (29, 2) --> 2, (29, 3) --> 4, (29, 4) --> 2, (29, 5) --> 2,
                 (29, 6) --> 3, (29, 7) --> 3, (29, 8) --> 4, (29, 9) --> 4, (29, 10) --> 4, (29, 11) --> 2,
                 (29, 12) --> 2, (29, 13) --> 3, (29, 14) --> 3, (29, 15) --> 2, (29, 16) --> 4, (29, 17) --> 3,
                 (30, 1) --> 4, (30, 2) --> 2, (30, 3) --> 3, (30, 4) --> 3, (30, 5) --> 2, (30, 6) --> 4,
                 (30, 7) --> 4, (30, 8) --> 3, (30, 9) --> 4, (30, 10) --> 4, (30, 11) --> 3, (30, 12) --> 2,
                 (30, 13) --> 4, (30, 14) --> 2, (30, 15) --> 4, (30, 16) --> 2, (30, 17) --> 3, (31, 1) --> 2,
                 (31, 2) --> 3, (31, 3) --> 2, (31, 4) --> 4, (31, 5) --> 2, (31, 6) --> 3, (31, 7) --> 2,
                 (31, 8) --> 4, (31, 9) --> 3, (31, 10) --> 4, (31, 11) --> 2, (31, 12) --> 3, (31, 13) --> 3,
                 (31, 14) --> 2, (31, 15) --> 4, (31, 16) --> 3, (31, 17) --> 3, (32, 1) --> 4, (32, 2) --> 4,
                 (32, 3) --> 4, (32, 4) --> 4, (32, 5) --> 3, (32, 6) --> 4, (32, 7) --> 4, (32, 8) --> 3,
                 (32, 9) --> 3, (32, 10) --> 3, (32, 11) --> 2, (32, 12) --> 2, (32, 13) --> 3, (32, 14) --> 2,
                 (32, 15) --> 3, (32, 16) --> 3, (32, 17) --> 2, (33, 1) --> 3, (33, 2) --> 4, (33, 3) --> 2,
                 (33, 4) --> 4, (33, 5) --> 4, (33, 6) --> 3, (33, 7) --> 3, (33, 8) --> 4, (33, 9) --> 4,
                 (33, 10) --> 4, (33, 11) --> 3, (33, 12) --> 3, (33, 13) --> 2, (33, 14) --> 4, (33, 15) --> 4,
                 (33, 16) --> 4, (33, 17) --> 3, (34, 1) --> 4, (34, 2) --> 4, (34, 3) --> 2, (34, 4) --> 2,
                 (34, 5) --> 2, (34, 6) --> 2, (34, 7) --> 3, (34, 8) --> 4, (34, 9) --> 2, (34, 10) --> 2,
                 (34, 11) --> 3, (34, 12) --> 2, (34, 13) --> 2, (34, 14) --> 4, (34, 15) --> 3, (34, 16) --> 3,
                 (34, 17) --> 2)
letting demand be function(1 --> 40, 2 --> 37, 3 --> 39, 4 --> 37)
letting maxCost be 26
letting n_customer be 4
letting n_transshipment be 17
letting n_warehouses be 34
letting stock be
        function(1 --> 48, 2 --> 49, 3 --> 47, 4 --> 50, 5 --> 49, 6 --> 47, 7 --> 49, 8 --> 48, 9 --> 47, 10 --> 49,
                 11 --> 47, 12 --> 48, 13 --> 48, 14 --> 49, 15 --> 50, 16 --> 49, 17 --> 48, 18 --> 48, 19 --> 50,
                 20 --> 47, 21 --> 47, 22 --> 47, 23 --> 48, 24 --> 48, 25 --> 47, 26 --> 47, 27 --> 50, 28 --> 49,
                 29 --> 48, 30 --> 49, 31 --> 47, 32 --> 50, 33 --> 48, 34 --> 47)
